Maximize
  - 4.783600505112 edge_0_1_0_0 - 3.374275382876 edge_0_2_0_0
   - 3.4976516755692 edge_0_3_0_0 - 1.68257915374 edge_0_4_0_0
   - 5.1464396323593 edge_0_5_0_0 - 0.7726504705343999 edge_0_6_0_0
   - 1.1916231639498 edge_0_9_0_0 - 4.866236788281601 edge_0_15_0_0
   - 1.3617968429532 edge_0_18_0_0 + 0.7048787707235089 edge_1_2_0_0
   - 0.3097920895544268 edge_1_4_0_0 - 0.2381200294523672 edge_1_6_0_0
   + 1.786953111450874 edge_2_1_0_0 + 0.1524107498816492 edge_2_4_0_0
   + 0.2476496408071451 edge_2_6_0_0 + 0.00110306809474659 edge_2_9_0_0
   + 3.2135388635548 edge_3_2_0_0 + 0.5083825509217692 edge_3_4_0_0
   - 0.55911220773804 edge_3_5_0_0 + 0.8858511468627527 edge_3_6_0_0
   + 0.00382305 edge_3_7_0_0 + 0.1975744453611809 edge_3_9_0_0
   - 0.807597 edge_3_12_0_0 - 0.5555233388569069 edge_3_13_0_0
   - 0.53663306310168 edge_3_14_0_0 - 0.7414126271431177 edge_3_15_0_0
   - 0.8167325521276096 edge_3_16_0_0 - 0.6231139039119191 edge_3_17_0_0
   + 0.5068312835270943 edge_3_18_0_0 + 0.755528 edge_3_19_0_0
   + 0.2475732604624668 edge_4_1_0_0 + 0.1342913650738177 edge_4_2_0_0
   + 0.2650342140272294 edge_4_3_0_0 - 0.9422890631935639 edge_4_5_0_0
   + 0.7534993516978818 edge_4_6_0_0 - 0.637232000607347 edge_4_7_0_0
   + 0.0364254369716803 edge_4_9_0_0 - 1.05339331002563 edge_4_13_0_0
   - 0.7228862641726066 edge_4_18_0_0 - 0.0191745748007323 edge_4_19_0_0
   - 0.72142484979114 edge_5_3_0_0 - 0.1790137263016802 edge_5_4_0_0
   + 0.2472214831997425 edge_5_6_0_0 + 0.1088498719007824 edge_5_7_0_0
   - 0.5884642878373567 edge_5_8_0_0 - 1.021350652720107 edge_5_9_0_0
   - 1.247910420955922 edge_5_13_0_0 - 0.7635723440342135 edge_5_18_0_0
   - 0.021972150266715 edge_5_19_0_0 + 0.3027381537376231 edge_6_1_0_0
   + 0.2431072229138013 edge_6_2_0_0 + 1.5811462260204 edge_6_3_0_0
   + 3.021361744871157 edge_6_4_0_0 + 2.483459658367955 edge_6_5_0_0
   + 0.1627551134877928 edge_6_7_0_0 + 0.2714975376984508 edge_6_8_0_0
   + 1.932006949954738 edge_6_9_0_0 + 0.1091909298056593 edge_6_10_0_0
   + 1.310616752835 edge_6_12_0_0 + 0.4276744294962061 edge_6_13_0_0
   + 0.4018354235294625 edge_6_14_0_0 + 0.1063018141435889 edge_6_15_0_0
   - 0.3751583527918794 edge_6_16_0_0 + 0.1161778903998103 edge_6_17_0_0
   + 0.9800200624720773 edge_6_18_0_0 + 2.9823275904435 edge_6_19_0_0
   - 1.252919901665537 edge_7_3_0_0 - 0.673750743019968 edge_7_4_0_0
   + 0.454103790421021 edge_7_5_0_0 - 0.2949824441270981 edge_7_6_0_0
   + 0.1671017680684317 edge_7_8_0_0 + 0.5006733800842872 edge_7_9_0_0
   - 0.0668655776802379 edge_7_10_0_0 - 0.07424650073082 edge_7_12_0_0
   - 0.0764054522509292 edge_7_13_0_0 - 0.1582804441986799 edge_7_14_0_0
   - 0.7663681286188275 edge_7_15_0_0 - 0.7340557342524506 edge_7_17_0_0
   - 0.6551319141990359 edge_7_18_0_0 + 0.2006990728539135 edge_8_7_0_0
   - 0.3815386324501179 edge_9_1_0_0 - 0.3326232771303341 edge_9_2_0_0
   + 0.0718392366679298 edge_9_3_0_0 + 0.9799931174775217 edge_9_4_0_0
   + 0.0536537557512135 edge_9_5_0_0 + 0.1581563960448006 edge_9_6_0_0
   + 1.571434689565443 edge_9_7_0_0 + 2.677118661369522 edge_9_8_0_0
   + 0.4281256448457963 edge_9_10_0_0 + 2.8951596525808 edge_9_12_0_0
   + 0.6067344022608628 edge_9_13_0_0 + 1.187165546554117 edge_9_14_0_0
   + 1.154499099490091 edge_9_15_0_0 + 1.221929046894697 edge_9_16_0_0
   + 0.5404437819974109 edge_9_17_0_0 + 1.387749981863991 edge_9_18_0_0
   + 1.4391598273008 edge_9_19_0_0 + 1.0168701469584 edge_10_12_0_0
   + 0.0348904295209055 edge_10_13_0_0 - 0.992473 edge_12_3_0_0
   + 0.11664283971182 edge_12_4_0_0 - 0.69340984575588 edge_12_5_0_0
   - 1.4537385634967 edge_12_6_0_0 - 0.017530273204698 edge_12_7_0_0
   + 0.18736396345577 edge_12_8_0_0 + 0.58164793020224 edge_12_9_0_0
   + 1.7674366481988 edge_12_10_0_0 + 0.74531089093818 edge_12_13_0_0
   + 1.2263631893128 edge_12_14_0_0 - 0.16680688990738 edge_12_15_0_0
   + 0.18712387649816 edge_12_16_0_0 - 0.7676645128498499 edge_12_17_0_0
   + 0.1969167488425 edge_12_18_0_0 + 1.06147 edge_12_19_0_0
   - 1.456537153110325 edge_13_3_0_0 - 0.7741155954878617 edge_13_6_0_0
   - 0.2121906610908655 edge_13_7_0_0 - 0.2479052630245111 edge_13_9_0_0
   - 0.1452935628637182 edge_13_10_0_0 - 1.3424281225866 edge_13_12_0_0
   + 0.4288869368454968 edge_13_14_0_0 + 0.0668033010901261 edge_13_15_0_0
   - 0.1661851957518811 edge_13_16_0_0 + 0.2004456795001086 edge_13_17_0_0
   + 0.665269497500202 edge_13_18_0_0 + 0.0229144043900837 edge_13_19_0_0
   - 0.75768877986452 edge_14_3_0_0 - 0.0234696932242005 edge_14_4_0_0
   - 0.4137696466550448 edge_14_5_0_0 - 0.3477525978021507 edge_14_6_0_0
   + 0.0697763010144422 edge_14_7_0_0 + 0.2427715697110178 edge_14_8_0_0
   - 0.2794162948809206 edge_14_9_0_0 + 0.4333603299807551 edge_14_10_0_0
   + 0.21473595664584 edge_14_12_0_0 + 1.516233374006617 edge_14_13_0_0
   + 1.505820489087021 edge_14_15_0_0 + 0.9590162203955968 edge_14_16_0_0
   + 0.2604357000454426 edge_14_17_0_0 + 0.2983820902880724 edge_14_18_0_0
   + 0.95219251159192 edge_14_19_0_0 - 0.8268764542611799 edge_15_3_0_0
   - 0.0178695784587994 edge_15_4_0_0 - 0.4914236865297629 edge_15_6_0_0
   - 0.5923867990288385 edge_15_7_0_0 - 0.4073237709822837 edge_15_8_0_0
   - 0.1816748582935144 edge_15_9_0_0 - 0.0546138695917823 edge_15_10_0_0
   - 0.026314282632562 edge_15_12_0_0 + 0.841293961433539 edge_15_13_0_0
   + 1.038088607123067 edge_15_14_0_0 + 4.191024467842226 edge_15_16_0_0
   + 0.409898549162529 edge_15_17_0_0 + 0.6910565873989513 edge_15_18_0_0
   + 0.6081798410207508 edge_15_19_0_0 - 1.219064247697685 edge_16_3_0_0
   - 0.9896848115254747 edge_16_6_0_0 - 0.5193803187960548 edge_16_7_0_0
   - 1.027472676353486 edge_16_8_0_0 - 1.13516911456749 edge_16_9_0_0
   - 1.095049277267 edge_16_12_0_0 + 0.0262587434677339 edge_16_13_0_0
   + 0.3575742893495732 edge_16_14_0_0 + 1.574457921713486 edge_16_15_0_0
   + 0.1256097655539 edge_16_17_0_0 - 0.1116572476683679 edge_16_18_0_0
   + 0.6999673338539046 edge_16_19_0_0 - 0.4769484946245094 edge_17_9_0_0
   - 0.2633917033407546 edge_17_13_0_0 + 0.1920204054352889 edge_17_15_0_0
   - 0.113156176829024 edge_17_16_0_0 - 0.16379054691615 edge_17_19_0_0
   + 0.7309023739073001 edge_18_3_0_0 + 1.186426765570233 edge_18_4_0_0
   + 0.7391059857946789 edge_18_5_0_0 + 0.1609118142581724 edge_18_6_0_0
   + 0.0914344559616529 edge_18_7_0_0 + 0.0327036327027925 edge_18_8_0_0
   + 1.418650385812933 edge_18_9_0_0 - 0.0456115105346852 edge_18_10_0_0
   + 0.1610322524659 edge_18_12_0_0 + 2.925129798084658 edge_18_13_0_0
   + 0.9408554552675799 edge_18_14_0_0 + 2.686845643056705 edge_18_15_0_0
   + 1.859790843984233 edge_18_16_0_0 + 4.37908312876462 edge_18_17_0_0
   + 3.117379376331 edge_18_19_0_0 - 1.149180701242834 edge_19_16_0_0
   - 0.7026035596772999 edge_19_18_0_0
Subject To
 one_parent_1: edge_0_1_0_0 + edge_2_1_0_0 + edge_4_1_0_0 + edge_6_1_0_0
   + edge_9_1_0_0 = 1
 consume_one_flow_unit_1: flow_0_1_0_0 - flow_1_2_0_0 - flow_1_4_0_0
   - flow_1_6_0_0 + flow_2_1_0_0 + flow_4_1_0_0 + flow_6_1_0_0
   + flow_9_1_0_0 = 1
 one_parent_2: edge_0_2_0_0 + edge_1_2_0_0 + edge_3_2_0_0 + edge_4_2_0_0
   + edge_6_2_0_0 + edge_9_2_0_0 = 1
 consume_one_flow_unit_2: flow_0_2_0_0 + flow_1_2_0_0 - flow_2_1_0_0
   - flow_2_4_0_0 - flow_2_6_0_0 - flow_2_9_0_0 + flow_3_2_0_0
   + flow_4_2_0_0 + flow_6_2_0_0 + flow_9_2_0_0 = 1
 one_parent_3: edge_0_3_0_0 + edge_4_3_0_0 + edge_5_3_0_0 + edge_6_3_0_0
   + edge_7_3_0_0 + edge_9_3_0_0 + edge_12_3_0_0 + edge_13_3_0_0
   + edge_14_3_0_0 + edge_15_3_0_0 + edge_16_3_0_0 + edge_18_3_0_0 = 1
 consume_one_flow_unit_3: flow_0_3_0_0 - flow_3_2_0_0 - flow_3_4_0_0
   - flow_3_5_0_0 - flow_3_6_0_0 - flow_3_7_0_0 - flow_3_9_0_0
   - flow_3_12_0_0 - flow_3_13_0_0 - flow_3_14_0_0 - flow_3_15_0_0
   - flow_3_16_0_0 - flow_3_17_0_0 - flow_3_18_0_0 - flow_3_19_0_0
   + flow_4_3_0_0 + flow_5_3_0_0 + flow_6_3_0_0 + flow_7_3_0_0
   + flow_9_3_0_0 + flow_12_3_0_0 + flow_13_3_0_0 + flow_14_3_0_0
   + flow_15_3_0_0 + flow_16_3_0_0 + flow_18_3_0_0 = 1
 one_parent_4: edge_0_4_0_0 + edge_1_4_0_0 + edge_2_4_0_0 + edge_3_4_0_0
   + edge_5_4_0_0 + edge_6_4_0_0 + edge_7_4_0_0 + edge_9_4_0_0
   + edge_12_4_0_0 + edge_14_4_0_0 + edge_15_4_0_0 + edge_18_4_0_0 = 1
 consume_one_flow_unit_4: flow_0_4_0_0 + flow_1_4_0_0 + flow_2_4_0_0
   + flow_3_4_0_0 - flow_4_1_0_0 - flow_4_2_0_0 - flow_4_3_0_0
   - flow_4_5_0_0 - flow_4_6_0_0 - flow_4_7_0_0 - flow_4_9_0_0
   - flow_4_13_0_0 - flow_4_18_0_0 - flow_4_19_0_0 + flow_5_4_0_0
   + flow_6_4_0_0 + flow_7_4_0_0 + flow_9_4_0_0 + flow_12_4_0_0
   + flow_14_4_0_0 + flow_15_4_0_0 + flow_18_4_0_0 = 1
 one_parent_5: edge_0_5_0_0 + edge_3_5_0_0 + edge_4_5_0_0 + edge_6_5_0_0
   + edge_7_5_0_0 + edge_9_5_0_0 + edge_12_5_0_0 + edge_14_5_0_0
   + edge_18_5_0_0 = 1
 consume_one_flow_unit_5: flow_0_5_0_0 + flow_3_5_0_0 + flow_4_5_0_0
   - flow_5_3_0_0 - flow_5_4_0_0 - flow_5_6_0_0 - flow_5_7_0_0
   - flow_5_8_0_0 - flow_5_9_0_0 - flow_5_13_0_0 - flow_5_18_0_0
   - flow_5_19_0_0 + flow_6_5_0_0 + flow_7_5_0_0 + flow_9_5_0_0
   + flow_12_5_0_0 + flow_14_5_0_0 + flow_18_5_0_0 = 1
 one_parent_6: edge_0_6_0_0 + edge_1_6_0_0 + edge_2_6_0_0 + edge_3_6_0_0
   + edge_4_6_0_0 + edge_5_6_0_0 + edge_7_6_0_0 + edge_9_6_0_0
   + edge_12_6_0_0 + edge_13_6_0_0 + edge_14_6_0_0 + edge_15_6_0_0
   + edge_16_6_0_0 + edge_18_6_0_0 = 1
 consume_one_flow_unit_6: flow_0_6_0_0 + flow_1_6_0_0 + flow_2_6_0_0
   + flow_3_6_0_0 + flow_4_6_0_0 + flow_5_6_0_0 - flow_6_1_0_0
   - flow_6_2_0_0 - flow_6_3_0_0 - flow_6_4_0_0 - flow_6_5_0_0
   - flow_6_7_0_0 - flow_6_8_0_0 - flow_6_9_0_0 - flow_6_10_0_0
   - flow_6_12_0_0 - flow_6_13_0_0 - flow_6_14_0_0 - flow_6_15_0_0
   - flow_6_16_0_0 - flow_6_17_0_0 - flow_6_18_0_0 - flow_6_19_0_0
   + flow_7_6_0_0 + flow_9_6_0_0 + flow_12_6_0_0 + flow_13_6_0_0
   + flow_14_6_0_0 + flow_15_6_0_0 + flow_16_6_0_0 + flow_18_6_0_0 = 1
 one_parent_7: edge_3_7_0_0 + edge_4_7_0_0 + edge_5_7_0_0 + edge_6_7_0_0
   + edge_8_7_0_0 + edge_9_7_0_0 + edge_12_7_0_0 + edge_13_7_0_0
   + edge_14_7_0_0 + edge_15_7_0_0 + edge_16_7_0_0 + edge_18_7_0_0 = 1
 consume_one_flow_unit_7: flow_3_7_0_0 + flow_4_7_0_0 + flow_5_7_0_0
   + flow_6_7_0_0 - flow_7_3_0_0 - flow_7_4_0_0 - flow_7_5_0_0
   - flow_7_6_0_0 - flow_7_8_0_0 - flow_7_9_0_0 - flow_7_10_0_0
   - flow_7_12_0_0 - flow_7_13_0_0 - flow_7_14_0_0 - flow_7_15_0_0
   - flow_7_17_0_0 - flow_7_18_0_0 + flow_8_7_0_0 + flow_9_7_0_0
   + flow_12_7_0_0 + flow_13_7_0_0 + flow_14_7_0_0 + flow_15_7_0_0
   + flow_16_7_0_0 + flow_18_7_0_0 = 1
 one_parent_8: edge_5_8_0_0 + edge_6_8_0_0 + edge_7_8_0_0 + edge_9_8_0_0
   + edge_12_8_0_0 + edge_14_8_0_0 + edge_15_8_0_0 + edge_16_8_0_0
   + edge_18_8_0_0 = 1
 consume_one_flow_unit_8: flow_5_8_0_0 + flow_6_8_0_0 + flow_7_8_0_0
   - flow_8_7_0_0 + flow_9_8_0_0 + flow_12_8_0_0 + flow_14_8_0_0
   + flow_15_8_0_0 + flow_16_8_0_0 + flow_18_8_0_0 = 1
 one_parent_9: edge_0_9_0_0 + edge_2_9_0_0 + edge_3_9_0_0 + edge_4_9_0_0
   + edge_5_9_0_0 + edge_6_9_0_0 + edge_7_9_0_0 + edge_12_9_0_0
   + edge_13_9_0_0 + edge_14_9_0_0 + edge_15_9_0_0 + edge_16_9_0_0
   + edge_17_9_0_0 + edge_18_9_0_0 = 1
 consume_one_flow_unit_9: flow_0_9_0_0 + flow_2_9_0_0 + flow_3_9_0_0
   + flow_4_9_0_0 + flow_5_9_0_0 + flow_6_9_0_0 + flow_7_9_0_0
   - flow_9_1_0_0 - flow_9_2_0_0 - flow_9_3_0_0 - flow_9_4_0_0
   - flow_9_5_0_0 - flow_9_6_0_0 - flow_9_7_0_0 - flow_9_8_0_0
   - flow_9_10_0_0 - flow_9_12_0_0 - flow_9_13_0_0 - flow_9_14_0_0
   - flow_9_15_0_0 - flow_9_16_0_0 - flow_9_17_0_0 - flow_9_18_0_0
   - flow_9_19_0_0 + flow_12_9_0_0 + flow_13_9_0_0 + flow_14_9_0_0
   + flow_15_9_0_0 + flow_16_9_0_0 + flow_17_9_0_0 + flow_18_9_0_0 = 1
 one_parent_10: edge_6_10_0_0 + edge_7_10_0_0 + edge_9_10_0_0
   + edge_12_10_0_0 + edge_13_10_0_0 + edge_14_10_0_0 + edge_15_10_0_0
   + edge_18_10_0_0 = 1
 consume_one_flow_unit_10: flow_6_10_0_0 + flow_7_10_0_0 + flow_9_10_0_0
   - flow_10_12_0_0 - flow_10_13_0_0 + flow_12_10_0_0 + flow_13_10_0_0
   + flow_14_10_0_0 + flow_15_10_0_0 + flow_18_10_0_0 = 1
 one_parent_11: = 1
 consume_one_flow_unit_11: = 1
 one_parent_12: edge_3_12_0_0 + edge_6_12_0_0 + edge_7_12_0_0
   + edge_9_12_0_0 + edge_10_12_0_0 + edge_13_12_0_0 + edge_14_12_0_0
   + edge_15_12_0_0 + edge_16_12_0_0 + edge_18_12_0_0 = 1
 consume_one_flow_unit_12: flow_3_12_0_0 + flow_6_12_0_0 + flow_7_12_0_0
   + flow_9_12_0_0 + flow_10_12_0_0 - flow_12_3_0_0 - flow_12_4_0_0
   - flow_12_5_0_0 - flow_12_6_0_0 - flow_12_7_0_0 - flow_12_8_0_0
   - flow_12_9_0_0 - flow_12_10_0_0 - flow_12_13_0_0 - flow_12_14_0_0
   - flow_12_15_0_0 - flow_12_16_0_0 - flow_12_17_0_0 - flow_12_18_0_0
   - flow_12_19_0_0 + flow_13_12_0_0 + flow_14_12_0_0 + flow_15_12_0_0
   + flow_16_12_0_0 + flow_18_12_0_0 = 1
 one_parent_13: edge_3_13_0_0 + edge_4_13_0_0 + edge_5_13_0_0
   + edge_6_13_0_0 + edge_7_13_0_0 + edge_9_13_0_0 + edge_10_13_0_0
   + edge_12_13_0_0 + edge_14_13_0_0 + edge_15_13_0_0 + edge_16_13_0_0
   + edge_17_13_0_0 + edge_18_13_0_0 = 1
 consume_one_flow_unit_13: flow_3_13_0_0 + flow_4_13_0_0 + flow_5_13_0_0
   + flow_6_13_0_0 + flow_7_13_0_0 + flow_9_13_0_0 + flow_10_13_0_0
   + flow_12_13_0_0 - flow_13_3_0_0 - flow_13_6_0_0 - flow_13_7_0_0
   - flow_13_9_0_0 - flow_13_10_0_0 - flow_13_12_0_0 - flow_13_14_0_0
   - flow_13_15_0_0 - flow_13_16_0_0 - flow_13_17_0_0 - flow_13_18_0_0
   - flow_13_19_0_0 + flow_14_13_0_0 + flow_15_13_0_0 + flow_16_13_0_0
   + flow_17_13_0_0 + flow_18_13_0_0 = 1
 one_parent_14: edge_3_14_0_0 + edge_6_14_0_0 + edge_7_14_0_0
   + edge_9_14_0_0 + edge_12_14_0_0 + edge_13_14_0_0 + edge_15_14_0_0
   + edge_16_14_0_0 + edge_18_14_0_0 = 1
 consume_one_flow_unit_14: flow_3_14_0_0 + flow_6_14_0_0 + flow_7_14_0_0
   + flow_9_14_0_0 + flow_12_14_0_0 + flow_13_14_0_0 - flow_14_3_0_0
   - flow_14_4_0_0 - flow_14_5_0_0 - flow_14_6_0_0 - flow_14_7_0_0
   - flow_14_8_0_0 - flow_14_9_0_0 - flow_14_10_0_0 - flow_14_12_0_0
   - flow_14_13_0_0 - flow_14_15_0_0 - flow_14_16_0_0 - flow_14_17_0_0
   - flow_14_18_0_0 - flow_14_19_0_0 + flow_15_14_0_0 + flow_16_14_0_0
   + flow_18_14_0_0 = 1
 one_parent_15: edge_0_15_0_0 + edge_3_15_0_0 + edge_6_15_0_0
   + edge_7_15_0_0 + edge_9_15_0_0 + edge_12_15_0_0 + edge_13_15_0_0
   + edge_14_15_0_0 + edge_16_15_0_0 + edge_17_15_0_0 + edge_18_15_0_0 = 1
 consume_one_flow_unit_15: flow_0_15_0_0 + flow_3_15_0_0 + flow_6_15_0_0
   + flow_7_15_0_0 + flow_9_15_0_0 + flow_12_15_0_0 + flow_13_15_0_0
   + flow_14_15_0_0 - flow_15_3_0_0 - flow_15_4_0_0 - flow_15_6_0_0
   - flow_15_7_0_0 - flow_15_8_0_0 - flow_15_9_0_0 - flow_15_10_0_0
   - flow_15_12_0_0 - flow_15_13_0_0 - flow_15_14_0_0 - flow_15_16_0_0
   - flow_15_17_0_0 - flow_15_18_0_0 - flow_15_19_0_0 + flow_16_15_0_0
   + flow_17_15_0_0 + flow_18_15_0_0 = 1
 one_parent_16: edge_3_16_0_0 + edge_6_16_0_0 + edge_9_16_0_0
   + edge_12_16_0_0 + edge_13_16_0_0 + edge_14_16_0_0 + edge_15_16_0_0
   + edge_17_16_0_0 + edge_18_16_0_0 + edge_19_16_0_0 = 1
 consume_one_flow_unit_16: flow_3_16_0_0 + flow_6_16_0_0 + flow_9_16_0_0
   + flow_12_16_0_0 + flow_13_16_0_0 + flow_14_16_0_0 + flow_15_16_0_0
   - flow_16_3_0_0 - flow_16_6_0_0 - flow_16_7_0_0 - flow_16_8_0_0
   - flow_16_9_0_0 - flow_16_12_0_0 - flow_16_13_0_0 - flow_16_14_0_0
   - flow_16_15_0_0 - flow_16_17_0_0 - flow_16_18_0_0 - flow_16_19_0_0
   + flow_17_16_0_0 + flow_18_16_0_0 + flow_19_16_0_0 = 1
 one_parent_17: edge_3_17_0_0 + edge_6_17_0_0 + edge_7_17_0_0
   + edge_9_17_0_0 + edge_12_17_0_0 + edge_13_17_0_0 + edge_14_17_0_0
   + edge_15_17_0_0 + edge_16_17_0_0 + edge_18_17_0_0 = 1
 consume_one_flow_unit_17: flow_3_17_0_0 + flow_6_17_0_0 + flow_7_17_0_0
   + flow_9_17_0_0 + flow_12_17_0_0 + flow_13_17_0_0 + flow_14_17_0_0
   + flow_15_17_0_0 + flow_16_17_0_0 - flow_17_9_0_0 - flow_17_13_0_0
   - flow_17_15_0_0 - flow_17_16_0_0 - flow_17_19_0_0 + flow_18_17_0_0 = 1
 one_parent_18: edge_0_18_0_0 + edge_3_18_0_0 + edge_4_18_0_0
   + edge_5_18_0_0 + edge_6_18_0_0 + edge_7_18_0_0 + edge_9_18_0_0
   + edge_12_18_0_0 + edge_13_18_0_0 + edge_14_18_0_0 + edge_15_18_0_0
   + edge_16_18_0_0 + edge_19_18_0_0 = 1
 consume_one_flow_unit_18: flow_0_18_0_0 + flow_3_18_0_0 + flow_4_18_0_0
   + flow_5_18_0_0 + flow_6_18_0_0 + flow_7_18_0_0 + flow_9_18_0_0
   + flow_12_18_0_0 + flow_13_18_0_0 + flow_14_18_0_0 + flow_15_18_0_0
   + flow_16_18_0_0 - flow_18_3_0_0 - flow_18_4_0_0 - flow_18_5_0_0
   - flow_18_6_0_0 - flow_18_7_0_0 - flow_18_8_0_0 - flow_18_9_0_0
   - flow_18_10_0_0 - flow_18_12_0_0 - flow_18_13_0_0 - flow_18_14_0_0
   - flow_18_15_0_0 - flow_18_16_0_0 - flow_18_17_0_0 - flow_18_19_0_0
   + flow_19_18_0_0 = 1
 one_parent_19: edge_3_19_0_0 + edge_4_19_0_0 + edge_5_19_0_0
   + edge_6_19_0_0 + edge_9_19_0_0 + edge_12_19_0_0 + edge_13_19_0_0
   + edge_14_19_0_0 + edge_15_19_0_0 + edge_16_19_0_0 + edge_17_19_0_0
   + edge_18_19_0_0 = 1
 consume_one_flow_unit_19: flow_3_19_0_0 + flow_4_19_0_0 + flow_5_19_0_0
   + flow_6_19_0_0 + flow_9_19_0_0 + flow_12_19_0_0 + flow_13_19_0_0
   + flow_14_19_0_0 + flow_15_19_0_0 + flow_16_19_0_0 + flow_17_19_0_0
   + flow_18_19_0_0 - flow_19_16_0_0 - flow_19_18_0_0 = 1
 root_flow: flow_0_1_0_0 + flow_0_2_0_0 + flow_0_3_0_0 + flow_0_4_0_0
   + flow_0_5_0_0 + flow_0_6_0_0 + flow_0_9_0_0 + flow_0_15_0_0
   + flow_0_18_0_0 = 19
 inactive_no_flow_0_1_0_0: flow_0_1_0_0 - 1000 edge_0_1_0_0 <= 0
 inactive_no_flow_0_2_0_0: flow_0_2_0_0 - 1000 edge_0_2_0_0 <= 0
 inactive_no_flow_0_3_0_0: flow_0_3_0_0 - 1000 edge_0_3_0_0 <= 0
 inactive_no_flow_0_4_0_0: flow_0_4_0_0 - 1000 edge_0_4_0_0 <= 0
 inactive_no_flow_0_5_0_0: flow_0_5_0_0 - 1000 edge_0_5_0_0 <= 0
 inactive_no_flow_0_6_0_0: flow_0_6_0_0 - 1000 edge_0_6_0_0 <= 0
 inactive_no_flow_0_9_0_0: flow_0_9_0_0 - 1000 edge_0_9_0_0 <= 0
 inactive_no_flow_0_15_0_0: flow_0_15_0_0 - 1000 edge_0_15_0_0 <= 0
 inactive_no_flow_0_18_0_0: flow_0_18_0_0 - 1000 edge_0_18_0_0 <= 0
 inactive_no_flow_1_2_0_0: flow_1_2_0_0 - 1000 edge_1_2_0_0 <= 0
 inactive_no_flow_1_4_0_0: flow_1_4_0_0 - 1000 edge_1_4_0_0 <= 0
 inactive_no_flow_1_6_0_0: flow_1_6_0_0 - 1000 edge_1_6_0_0 <= 0
 inactive_no_flow_2_1_0_0: flow_2_1_0_0 - 1000 edge_2_1_0_0 <= 0
 inactive_no_flow_2_4_0_0: flow_2_4_0_0 - 1000 edge_2_4_0_0 <= 0
 inactive_no_flow_2_6_0_0: flow_2_6_0_0 - 1000 edge_2_6_0_0 <= 0
 inactive_no_flow_2_9_0_0: flow_2_9_0_0 - 1000 edge_2_9_0_0 <= 0
 inactive_no_flow_3_2_0_0: flow_3_2_0_0 - 1000 edge_3_2_0_0 <= 0
 inactive_no_flow_3_4_0_0: flow_3_4_0_0 - 1000 edge_3_4_0_0 <= 0
 inactive_no_flow_3_5_0_0: flow_3_5_0_0 - 1000 edge_3_5_0_0 <= 0
 inactive_no_flow_3_6_0_0: flow_3_6_0_0 - 1000 edge_3_6_0_0 <= 0
 inactive_no_flow_3_7_0_0: flow_3_7_0_0 - 1000 edge_3_7_0_0 <= 0
 inactive_no_flow_3_9_0_0: flow_3_9_0_0 - 1000 edge_3_9_0_0 <= 0
 inactive_no_flow_3_12_0_0: flow_3_12_0_0 - 1000 edge_3_12_0_0 <= 0
 inactive_no_flow_3_13_0_0: flow_3_13_0_0 - 1000 edge_3_13_0_0 <= 0
 inactive_no_flow_3_14_0_0: flow_3_14_0_0 - 1000 edge_3_14_0_0 <= 0
 inactive_no_flow_3_15_0_0: flow_3_15_0_0 - 1000 edge_3_15_0_0 <= 0
 inactive_no_flow_3_16_0_0: flow_3_16_0_0 - 1000 edge_3_16_0_0 <= 0
 inactive_no_flow_3_17_0_0: flow_3_17_0_0 - 1000 edge_3_17_0_0 <= 0
 inactive_no_flow_3_18_0_0: flow_3_18_0_0 - 1000 edge_3_18_0_0 <= 0
 inactive_no_flow_3_19_0_0: flow_3_19_0_0 - 1000 edge_3_19_0_0 <= 0
 inactive_no_flow_4_1_0_0: flow_4_1_0_0 - 1000 edge_4_1_0_0 <= 0
 inactive_no_flow_4_2_0_0: flow_4_2_0_0 - 1000 edge_4_2_0_0 <= 0
 inactive_no_flow_4_3_0_0: flow_4_3_0_0 - 1000 edge_4_3_0_0 <= 0
 inactive_no_flow_4_5_0_0: flow_4_5_0_0 - 1000 edge_4_5_0_0 <= 0
 inactive_no_flow_4_6_0_0: flow_4_6_0_0 - 1000 edge_4_6_0_0 <= 0
 inactive_no_flow_4_7_0_0: flow_4_7_0_0 - 1000 edge_4_7_0_0 <= 0
 inactive_no_flow_4_9_0_0: flow_4_9_0_0 - 1000 edge_4_9_0_0 <= 0
 inactive_no_flow_4_13_0_0: flow_4_13_0_0 - 1000 edge_4_13_0_0 <= 0
 inactive_no_flow_4_18_0_0: flow_4_18_0_0 - 1000 edge_4_18_0_0 <= 0
 inactive_no_flow_4_19_0_0: flow_4_19_0_0 - 1000 edge_4_19_0_0 <= 0
 inactive_no_flow_5_3_0_0: flow_5_3_0_0 - 1000 edge_5_3_0_0 <= 0
 inactive_no_flow_5_4_0_0: flow_5_4_0_0 - 1000 edge_5_4_0_0 <= 0
 inactive_no_flow_5_6_0_0: flow_5_6_0_0 - 1000 edge_5_6_0_0 <= 0
 inactive_no_flow_5_7_0_0: flow_5_7_0_0 - 1000 edge_5_7_0_0 <= 0
 inactive_no_flow_5_8_0_0: flow_5_8_0_0 - 1000 edge_5_8_0_0 <= 0
 inactive_no_flow_5_9_0_0: flow_5_9_0_0 - 1000 edge_5_9_0_0 <= 0
 inactive_no_flow_5_13_0_0: flow_5_13_0_0 - 1000 edge_5_13_0_0 <= 0
 inactive_no_flow_5_18_0_0: flow_5_18_0_0 - 1000 edge_5_18_0_0 <= 0
 inactive_no_flow_5_19_0_0: flow_5_19_0_0 - 1000 edge_5_19_0_0 <= 0
 inactive_no_flow_6_1_0_0: flow_6_1_0_0 - 1000 edge_6_1_0_0 <= 0
 inactive_no_flow_6_2_0_0: flow_6_2_0_0 - 1000 edge_6_2_0_0 <= 0
 inactive_no_flow_6_3_0_0: flow_6_3_0_0 - 1000 edge_6_3_0_0 <= 0
 inactive_no_flow_6_4_0_0: flow_6_4_0_0 - 1000 edge_6_4_0_0 <= 0
 inactive_no_flow_6_5_0_0: flow_6_5_0_0 - 1000 edge_6_5_0_0 <= 0
 inactive_no_flow_6_7_0_0: flow_6_7_0_0 - 1000 edge_6_7_0_0 <= 0
 inactive_no_flow_6_8_0_0: flow_6_8_0_0 - 1000 edge_6_8_0_0 <= 0
 inactive_no_flow_6_9_0_0: flow_6_9_0_0 - 1000 edge_6_9_0_0 <= 0
 inactive_no_flow_6_10_0_0: flow_6_10_0_0 - 1000 edge_6_10_0_0 <= 0
 inactive_no_flow_6_12_0_0: flow_6_12_0_0 - 1000 edge_6_12_0_0 <= 0
 inactive_no_flow_6_13_0_0: flow_6_13_0_0 - 1000 edge_6_13_0_0 <= 0
 inactive_no_flow_6_14_0_0: flow_6_14_0_0 - 1000 edge_6_14_0_0 <= 0
 inactive_no_flow_6_15_0_0: flow_6_15_0_0 - 1000 edge_6_15_0_0 <= 0
 inactive_no_flow_6_16_0_0: flow_6_16_0_0 - 1000 edge_6_16_0_0 <= 0
 inactive_no_flow_6_17_0_0: flow_6_17_0_0 - 1000 edge_6_17_0_0 <= 0
 inactive_no_flow_6_18_0_0: flow_6_18_0_0 - 1000 edge_6_18_0_0 <= 0
 inactive_no_flow_6_19_0_0: flow_6_19_0_0 - 1000 edge_6_19_0_0 <= 0
 inactive_no_flow_7_3_0_0: flow_7_3_0_0 - 1000 edge_7_3_0_0 <= 0
 inactive_no_flow_7_4_0_0: flow_7_4_0_0 - 1000 edge_7_4_0_0 <= 0
 inactive_no_flow_7_5_0_0: flow_7_5_0_0 - 1000 edge_7_5_0_0 <= 0
 inactive_no_flow_7_6_0_0: flow_7_6_0_0 - 1000 edge_7_6_0_0 <= 0
 inactive_no_flow_7_8_0_0: flow_7_8_0_0 - 1000 edge_7_8_0_0 <= 0
 inactive_no_flow_7_9_0_0: flow_7_9_0_0 - 1000 edge_7_9_0_0 <= 0
 inactive_no_flow_7_10_0_0: flow_7_10_0_0 - 1000 edge_7_10_0_0 <= 0
 inactive_no_flow_7_12_0_0: flow_7_12_0_0 - 1000 edge_7_12_0_0 <= 0
 inactive_no_flow_7_13_0_0: flow_7_13_0_0 - 1000 edge_7_13_0_0 <= 0
 inactive_no_flow_7_14_0_0: flow_7_14_0_0 - 1000 edge_7_14_0_0 <= 0
 inactive_no_flow_7_15_0_0: flow_7_15_0_0 - 1000 edge_7_15_0_0 <= 0
 inactive_no_flow_7_17_0_0: flow_7_17_0_0 - 1000 edge_7_17_0_0 <= 0
 inactive_no_flow_7_18_0_0: flow_7_18_0_0 - 1000 edge_7_18_0_0 <= 0
 inactive_no_flow_8_7_0_0: flow_8_7_0_0 - 1000 edge_8_7_0_0 <= 0
 inactive_no_flow_9_1_0_0: flow_9_1_0_0 - 1000 edge_9_1_0_0 <= 0
 inactive_no_flow_9_2_0_0: flow_9_2_0_0 - 1000 edge_9_2_0_0 <= 0
 inactive_no_flow_9_3_0_0: flow_9_3_0_0 - 1000 edge_9_3_0_0 <= 0
 inactive_no_flow_9_4_0_0: flow_9_4_0_0 - 1000 edge_9_4_0_0 <= 0
 inactive_no_flow_9_5_0_0: flow_9_5_0_0 - 1000 edge_9_5_0_0 <= 0
 inactive_no_flow_9_6_0_0: flow_9_6_0_0 - 1000 edge_9_6_0_0 <= 0
 inactive_no_flow_9_7_0_0: flow_9_7_0_0 - 1000 edge_9_7_0_0 <= 0
 inactive_no_flow_9_8_0_0: flow_9_8_0_0 - 1000 edge_9_8_0_0 <= 0
 inactive_no_flow_9_10_0_0: flow_9_10_0_0 - 1000 edge_9_10_0_0 <= 0
 inactive_no_flow_9_12_0_0: flow_9_12_0_0 - 1000 edge_9_12_0_0 <= 0
 inactive_no_flow_9_13_0_0: flow_9_13_0_0 - 1000 edge_9_13_0_0 <= 0
 inactive_no_flow_9_14_0_0: flow_9_14_0_0 - 1000 edge_9_14_0_0 <= 0
 inactive_no_flow_9_15_0_0: flow_9_15_0_0 - 1000 edge_9_15_0_0 <= 0
 inactive_no_flow_9_16_0_0: flow_9_16_0_0 - 1000 edge_9_16_0_0 <= 0
 inactive_no_flow_9_17_0_0: flow_9_17_0_0 - 1000 edge_9_17_0_0 <= 0
 inactive_no_flow_9_18_0_0: flow_9_18_0_0 - 1000 edge_9_18_0_0 <= 0
 inactive_no_flow_9_19_0_0: flow_9_19_0_0 - 1000 edge_9_19_0_0 <= 0
 inactive_no_flow_10_12_0_0: flow_10_12_0_0 - 1000 edge_10_12_0_0 <= 0
 inactive_no_flow_10_13_0_0: flow_10_13_0_0 - 1000 edge_10_13_0_0 <= 0
 inactive_no_flow_12_3_0_0: flow_12_3_0_0 - 1000 edge_12_3_0_0 <= 0
 inactive_no_flow_12_4_0_0: flow_12_4_0_0 - 1000 edge_12_4_0_0 <= 0
 inactive_no_flow_12_5_0_0: flow_12_5_0_0 - 1000 edge_12_5_0_0 <= 0
 inactive_no_flow_12_6_0_0: flow_12_6_0_0 - 1000 edge_12_6_0_0 <= 0
 inactive_no_flow_12_7_0_0: flow_12_7_0_0 - 1000 edge_12_7_0_0 <= 0
 inactive_no_flow_12_8_0_0: flow_12_8_0_0 - 1000 edge_12_8_0_0 <= 0
 inactive_no_flow_12_9_0_0: flow_12_9_0_0 - 1000 edge_12_9_0_0 <= 0
 inactive_no_flow_12_10_0_0: flow_12_10_0_0 - 1000 edge_12_10_0_0 <= 0
 inactive_no_flow_12_13_0_0: flow_12_13_0_0 - 1000 edge_12_13_0_0 <= 0
 inactive_no_flow_12_14_0_0: flow_12_14_0_0 - 1000 edge_12_14_0_0 <= 0
 inactive_no_flow_12_15_0_0: flow_12_15_0_0 - 1000 edge_12_15_0_0 <= 0
 inactive_no_flow_12_16_0_0: flow_12_16_0_0 - 1000 edge_12_16_0_0 <= 0
 inactive_no_flow_12_17_0_0: flow_12_17_0_0 - 1000 edge_12_17_0_0 <= 0
 inactive_no_flow_12_18_0_0: flow_12_18_0_0 - 1000 edge_12_18_0_0 <= 0
 inactive_no_flow_12_19_0_0: flow_12_19_0_0 - 1000 edge_12_19_0_0 <= 0
 inactive_no_flow_13_3_0_0: flow_13_3_0_0 - 1000 edge_13_3_0_0 <= 0
 inactive_no_flow_13_6_0_0: flow_13_6_0_0 - 1000 edge_13_6_0_0 <= 0
 inactive_no_flow_13_7_0_0: flow_13_7_0_0 - 1000 edge_13_7_0_0 <= 0
 inactive_no_flow_13_9_0_0: flow_13_9_0_0 - 1000 edge_13_9_0_0 <= 0
 inactive_no_flow_13_10_0_0: flow_13_10_0_0 - 1000 edge_13_10_0_0 <= 0
 inactive_no_flow_13_12_0_0: flow_13_12_0_0 - 1000 edge_13_12_0_0 <= 0
 inactive_no_flow_13_14_0_0: flow_13_14_0_0 - 1000 edge_13_14_0_0 <= 0
 inactive_no_flow_13_15_0_0: flow_13_15_0_0 - 1000 edge_13_15_0_0 <= 0
 inactive_no_flow_13_16_0_0: flow_13_16_0_0 - 1000 edge_13_16_0_0 <= 0
 inactive_no_flow_13_17_0_0: flow_13_17_0_0 - 1000 edge_13_17_0_0 <= 0
 inactive_no_flow_13_18_0_0: flow_13_18_0_0 - 1000 edge_13_18_0_0 <= 0
 inactive_no_flow_13_19_0_0: flow_13_19_0_0 - 1000 edge_13_19_0_0 <= 0
 inactive_no_flow_14_3_0_0: flow_14_3_0_0 - 1000 edge_14_3_0_0 <= 0
 inactive_no_flow_14_4_0_0: flow_14_4_0_0 - 1000 edge_14_4_0_0 <= 0
 inactive_no_flow_14_5_0_0: flow_14_5_0_0 - 1000 edge_14_5_0_0 <= 0
 inactive_no_flow_14_6_0_0: flow_14_6_0_0 - 1000 edge_14_6_0_0 <= 0
 inactive_no_flow_14_7_0_0: flow_14_7_0_0 - 1000 edge_14_7_0_0 <= 0
 inactive_no_flow_14_8_0_0: flow_14_8_0_0 - 1000 edge_14_8_0_0 <= 0
 inactive_no_flow_14_9_0_0: flow_14_9_0_0 - 1000 edge_14_9_0_0 <= 0
 inactive_no_flow_14_10_0_0: flow_14_10_0_0 - 1000 edge_14_10_0_0 <= 0
 inactive_no_flow_14_12_0_0: flow_14_12_0_0 - 1000 edge_14_12_0_0 <= 0
 inactive_no_flow_14_13_0_0: flow_14_13_0_0 - 1000 edge_14_13_0_0 <= 0
 inactive_no_flow_14_15_0_0: flow_14_15_0_0 - 1000 edge_14_15_0_0 <= 0
 inactive_no_flow_14_16_0_0: flow_14_16_0_0 - 1000 edge_14_16_0_0 <= 0
 inactive_no_flow_14_17_0_0: flow_14_17_0_0 - 1000 edge_14_17_0_0 <= 0
 inactive_no_flow_14_18_0_0: flow_14_18_0_0 - 1000 edge_14_18_0_0 <= 0
 inactive_no_flow_14_19_0_0: flow_14_19_0_0 - 1000 edge_14_19_0_0 <= 0
 inactive_no_flow_15_3_0_0: flow_15_3_0_0 - 1000 edge_15_3_0_0 <= 0
 inactive_no_flow_15_4_0_0: flow_15_4_0_0 - 1000 edge_15_4_0_0 <= 0
 inactive_no_flow_15_6_0_0: flow_15_6_0_0 - 1000 edge_15_6_0_0 <= 0
 inactive_no_flow_15_7_0_0: flow_15_7_0_0 - 1000 edge_15_7_0_0 <= 0
 inactive_no_flow_15_8_0_0: flow_15_8_0_0 - 1000 edge_15_8_0_0 <= 0
 inactive_no_flow_15_9_0_0: flow_15_9_0_0 - 1000 edge_15_9_0_0 <= 0
 inactive_no_flow_15_10_0_0: flow_15_10_0_0 - 1000 edge_15_10_0_0 <= 0
 inactive_no_flow_15_12_0_0: flow_15_12_0_0 - 1000 edge_15_12_0_0 <= 0
 inactive_no_flow_15_13_0_0: flow_15_13_0_0 - 1000 edge_15_13_0_0 <= 0
 inactive_no_flow_15_14_0_0: flow_15_14_0_0 - 1000 edge_15_14_0_0 <= 0
 inactive_no_flow_15_16_0_0: flow_15_16_0_0 - 1000 edge_15_16_0_0 <= 0
 inactive_no_flow_15_17_0_0: flow_15_17_0_0 - 1000 edge_15_17_0_0 <= 0
 inactive_no_flow_15_18_0_0: flow_15_18_0_0 - 1000 edge_15_18_0_0 <= 0
 inactive_no_flow_15_19_0_0: flow_15_19_0_0 - 1000 edge_15_19_0_0 <= 0
 inactive_no_flow_16_3_0_0: flow_16_3_0_0 - 1000 edge_16_3_0_0 <= 0
 inactive_no_flow_16_6_0_0: flow_16_6_0_0 - 1000 edge_16_6_0_0 <= 0
 inactive_no_flow_16_7_0_0: flow_16_7_0_0 - 1000 edge_16_7_0_0 <= 0
 inactive_no_flow_16_8_0_0: flow_16_8_0_0 - 1000 edge_16_8_0_0 <= 0
 inactive_no_flow_16_9_0_0: flow_16_9_0_0 - 1000 edge_16_9_0_0 <= 0
 inactive_no_flow_16_12_0_0: flow_16_12_0_0 - 1000 edge_16_12_0_0 <= 0
 inactive_no_flow_16_13_0_0: flow_16_13_0_0 - 1000 edge_16_13_0_0 <= 0
 inactive_no_flow_16_14_0_0: flow_16_14_0_0 - 1000 edge_16_14_0_0 <= 0
 inactive_no_flow_16_15_0_0: flow_16_15_0_0 - 1000 edge_16_15_0_0 <= 0
 inactive_no_flow_16_17_0_0: flow_16_17_0_0 - 1000 edge_16_17_0_0 <= 0
 inactive_no_flow_16_18_0_0: flow_16_18_0_0 - 1000 edge_16_18_0_0 <= 0
 inactive_no_flow_16_19_0_0: flow_16_19_0_0 - 1000 edge_16_19_0_0 <= 0
 inactive_no_flow_17_9_0_0: flow_17_9_0_0 - 1000 edge_17_9_0_0 <= 0
 inactive_no_flow_17_13_0_0: flow_17_13_0_0 - 1000 edge_17_13_0_0 <= 0
 inactive_no_flow_17_15_0_0: flow_17_15_0_0 - 1000 edge_17_15_0_0 <= 0
 inactive_no_flow_17_16_0_0: flow_17_16_0_0 - 1000 edge_17_16_0_0 <= 0
 inactive_no_flow_17_19_0_0: flow_17_19_0_0 - 1000 edge_17_19_0_0 <= 0
 inactive_no_flow_18_3_0_0: flow_18_3_0_0 - 1000 edge_18_3_0_0 <= 0
 inactive_no_flow_18_4_0_0: flow_18_4_0_0 - 1000 edge_18_4_0_0 <= 0
 inactive_no_flow_18_5_0_0: flow_18_5_0_0 - 1000 edge_18_5_0_0 <= 0
 inactive_no_flow_18_6_0_0: flow_18_6_0_0 - 1000 edge_18_6_0_0 <= 0
 inactive_no_flow_18_7_0_0: flow_18_7_0_0 - 1000 edge_18_7_0_0 <= 0
 inactive_no_flow_18_8_0_0: flow_18_8_0_0 - 1000 edge_18_8_0_0 <= 0
 inactive_no_flow_18_9_0_0: flow_18_9_0_0 - 1000 edge_18_9_0_0 <= 0
 inactive_no_flow_18_10_0_0: flow_18_10_0_0 - 1000 edge_18_10_0_0 <= 0
 inactive_no_flow_18_12_0_0: flow_18_12_0_0 - 1000 edge_18_12_0_0 <= 0
 inactive_no_flow_18_13_0_0: flow_18_13_0_0 - 1000 edge_18_13_0_0 <= 0
 inactive_no_flow_18_14_0_0: flow_18_14_0_0 - 1000 edge_18_14_0_0 <= 0
 inactive_no_flow_18_15_0_0: flow_18_15_0_0 - 1000 edge_18_15_0_0 <= 0
 inactive_no_flow_18_16_0_0: flow_18_16_0_0 - 1000 edge_18_16_0_0 <= 0
 inactive_no_flow_18_17_0_0: flow_18_17_0_0 - 1000 edge_18_17_0_0 <= 0
 inactive_no_flow_18_19_0_0: flow_18_19_0_0 - 1000 edge_18_19_0_0 <= 0
 inactive_no_flow_19_16_0_0: flow_19_16_0_0 - 1000 edge_19_16_0_0 <= 0
 inactive_no_flow_19_18_0_0: flow_19_18_0_0 - 1000 edge_19_18_0_0 <= 0
Bounds
Binaries
 edge_0_1_0_0 edge_0_2_0_0 edge_0_3_0_0 edge_0_4_0_0 edge_0_5_0_0
 edge_0_6_0_0 edge_0_9_0_0 edge_0_15_0_0 edge_0_18_0_0 edge_1_2_0_0
 edge_1_4_0_0 edge_1_6_0_0 edge_2_1_0_0 edge_2_4_0_0 edge_2_6_0_0
 edge_2_9_0_0 edge_3_2_0_0 edge_3_4_0_0 edge_3_5_0_0 edge_3_6_0_0
 edge_3_7_0_0 edge_3_9_0_0 edge_3_12_0_0 edge_3_13_0_0 edge_3_14_0_0
 edge_3_15_0_0 edge_3_16_0_0 edge_3_17_0_0 edge_3_18_0_0 edge_3_19_0_0
 edge_4_1_0_0 edge_4_2_0_0 edge_4_3_0_0 edge_4_5_0_0 edge_4_6_0_0
 edge_4_7_0_0 edge_4_9_0_0 edge_4_13_0_0 edge_4_18_0_0 edge_4_19_0_0
 edge_5_3_0_0 edge_5_4_0_0 edge_5_6_0_0 edge_5_7_0_0 edge_5_8_0_0
 edge_5_9_0_0 edge_5_13_0_0 edge_5_18_0_0 edge_5_19_0_0 edge_6_1_0_0
 edge_6_2_0_0 edge_6_3_0_0 edge_6_4_0_0 edge_6_5_0_0 edge_6_7_0_0
 edge_6_8_0_0 edge_6_9_0_0 edge_6_10_0_0 edge_6_12_0_0 edge_6_13_0_0
 edge_6_14_0_0 edge_6_15_0_0 edge_6_16_0_0 edge_6_17_0_0 edge_6_18_0_0
 edge_6_19_0_0 edge_7_3_0_0 edge_7_4_0_0 edge_7_5_0_0 edge_7_6_0_0
 edge_7_8_0_0 edge_7_9_0_0 edge_7_10_0_0 edge_7_12_0_0 edge_7_13_0_0
 edge_7_14_0_0 edge_7_15_0_0 edge_7_17_0_0 edge_7_18_0_0 edge_8_7_0_0
 edge_9_1_0_0 edge_9_2_0_0 edge_9_3_0_0 edge_9_4_0_0 edge_9_5_0_0
 edge_9_6_0_0 edge_9_7_0_0 edge_9_8_0_0 edge_9_10_0_0 edge_9_12_0_0
 edge_9_13_0_0 edge_9_14_0_0 edge_9_15_0_0 edge_9_16_0_0 edge_9_17_0_0
 edge_9_18_0_0 edge_9_19_0_0 edge_10_12_0_0 edge_10_13_0_0 edge_12_3_0_0
 edge_12_4_0_0 edge_12_5_0_0 edge_12_6_0_0 edge_12_7_0_0 edge_12_8_0_0
 edge_12_9_0_0 edge_12_10_0_0 edge_12_13_0_0 edge_12_14_0_0 edge_12_15_0_0
 edge_12_16_0_0 edge_12_17_0_0 edge_12_18_0_0 edge_12_19_0_0 edge_13_3_0_0
 edge_13_6_0_0 edge_13_7_0_0 edge_13_9_0_0 edge_13_10_0_0 edge_13_12_0_0
 edge_13_14_0_0 edge_13_15_0_0 edge_13_16_0_0 edge_13_17_0_0 edge_13_18_0_0
 edge_13_19_0_0 edge_14_3_0_0 edge_14_4_0_0 edge_14_5_0_0 edge_14_6_0_0
 edge_14_7_0_0 edge_14_8_0_0 edge_14_9_0_0 edge_14_10_0_0 edge_14_12_0_0
 edge_14_13_0_0 edge_14_15_0_0 edge_14_16_0_0 edge_14_17_0_0 edge_14_18_0_0
 edge_14_19_0_0 edge_15_3_0_0 edge_15_4_0_0 edge_15_6_0_0 edge_15_7_0_0
 edge_15_8_0_0 edge_15_9_0_0 edge_15_10_0_0 edge_15_12_0_0 edge_15_13_0_0
 edge_15_14_0_0 edge_15_16_0_0 edge_15_17_0_0 edge_15_18_0_0 edge_15_19_0_0
 edge_16_3_0_0 edge_16_6_0_0 edge_16_7_0_0 edge_16_8_0_0 edge_16_9_0_0
 edge_16_12_0_0 edge_16_13_0_0 edge_16_14_0_0 edge_16_15_0_0 edge_16_17_0_0
 edge_16_18_0_0 edge_16_19_0_0 edge_17_9_0_0 edge_17_13_0_0 edge_17_15_0_0
 edge_17_16_0_0 edge_17_19_0_0 edge_18_3_0_0 edge_18_4_0_0 edge_18_5_0_0
 edge_18_6_0_0 edge_18_7_0_0 edge_18_8_0_0 edge_18_9_0_0 edge_18_10_0_0
 edge_18_12_0_0 edge_18_13_0_0 edge_18_14_0_0 edge_18_15_0_0 edge_18_16_0_0
 edge_18_17_0_0 edge_18_19_0_0 edge_19_16_0_0 edge_19_18_0_0
End
